; chc-comp19-benchmarks/./lra-ts/chc-lra-ts-0156_000.smt2
(set-logic HORN)

(declare-fun |invariant| ( Real Real Real Real Real Real Real Real Real Real Real Real Real Real Real Real Real Real Real Real Real Real Real Real Real Real Real Real Real Real Real Real Real Real Real Real Real Real Real Real Real Real Real Real Real Real Real Real Real Real Real Real Real Real Real Real Real Real Real Real Real Real Real Real Bool Bool Bool Bool Bool Bool Bool Bool Bool Bool Bool Bool Real Real Real Real Real Real Real ) Bool)

(assert
  (forall ( (A Real) (B Real) (C Real) (D Real) (E Real) (F Real) (G Real) (H Real) (I Real) (J Real) (K Real) (L Real) (M Real) (N Real) (O Real) (P Real) (Q Real) (R Real) (S Real) (T Real) (U Real) (V Real) (W Real) (X Real) (Y Real) (Z Real) (A1 Real) (B1 Real) (C1 Real) (D1 Real) (E1 Real) (F1 Real) (G1 Real) (H1 Real) (I1 Real) (J1 Real) (K1 Real) (L1 Real) (M1 Real) (N1 Real) (O1 Real) (P1 Real) (Q1 Real) (R1 Real) (S1 Real) (T1 Real) (U1 Real) (V1 Real) (W1 Real) (X1 Real) (Y1 Real) (Z1 Real) (A2 Real) (B2 Real) (C2 Real) (D2 Real) (E2 Real) (F2 Real) (G2 Real) (H2 Real) (I2 Real) (J2 Real) (K2 Real) (L2 Real) (M2 Real) (N2 Real) (O2 Real) (P2 Bool) (Q2 Bool) (R2 Bool) (S2 Bool) (T2 Bool) (U2 Bool) (V2 Bool) (W2 Bool) (X2 Bool) (Y2 Bool) (Z2 Bool) (A3 Bool) (B3 Real) (C3 Real) (D3 Real) (E3 Real) ) 
    (=>
      (and
        (and (= M2 0.0)
     (= L2 0.0)
     (= K2 0.0)
     (= J2 0.0)
     (= I2 0.0)
     (= H2 0.0)
     (= G2 0.0)
     (= F2 0.0)
     (= E2 0.0)
     (= D2 0.0)
     (= C2 0.0)
     (= B2 0.0)
     (= A2 0.0)
     (= Z1 0.0)
     (= Y1 0.0)
     (= X1 0.0)
     (= W1 0.0)
     (= V1 0.0)
     (= U1 0.0)
     (= T1 0.0)
     (= S1 0.0)
     (= R1 0.0)
     (= Q1 0.0)
     (= P1 0.0)
     (= O1 0.0)
     (= N1 0.0)
     (= M1 0.0)
     (= L1 0.0)
     (= K1 0.0)
     (= J1 0.0)
     (= I1 0.0)
     (= H1 0.0)
     (= G1 0.0)
     (= F1 0.0)
     (= E1 0.0)
     (= D1 0.0)
     (= C1 0.0)
     (= B1 0.0)
     (= A1 0.0)
     (= Z 0.0)
     (= Y 0.0)
     (= X 0.0)
     (= W 0.0)
     (= V 0.0)
     (= U 0.0)
     (= T 0.0)
     (= S 0.0)
     (= R 0.0)
     (= Q 0.0)
     (= P 0.0)
     (= O 0.0)
     (= N 0.0)
     (= M 0.0)
     (= L 0.0)
     (= K 0.0)
     (= J 0.0)
     (= I 0.0)
     (= H 0.0)
     (= G 0.0)
     (= F 0.0)
     (= E 0.0)
     (= D 0.0)
     (= C 0.0)
     (= B 0.0)
     (= A 0.0)
     (or (and (not T2) U2 V2 W2 X2 Y2 Z2 A3)
         (and T2 (not U2) V2 W2 X2 Y2 Z2 A3)
         (and T2 U2 (not V2) W2 X2 Y2 Z2 A3)
         (and T2 U2 V2 (not W2) X2 Y2 Z2 A3)
         (and T2 U2 V2 W2 (not X2) Y2 Z2 A3)
         (and T2 U2 V2 W2 X2 (not Y2) Z2 A3)
         (and T2 U2 V2 W2 X2 Y2 (not Z2) A3)
         (and T2 U2 V2 W2 X2 Y2 Z2 (not A3)))
     (or (= N2 1.0) (= N2 2.0) (= N2 3.0) (= N2 4.0))
     (= S2 true)
     (= R2 true)
     (= Q2 true)
     (= P2 true)
     (not (= O2 0.0)))
      )
      (invariant B
           C
           D
           E
           F
           G
           H
           I
           J
           K
           L
           M
           N
           O
           P
           Q
           R
           S
           T
           U
           V
           W
           X
           Y
           Z
           A1
           B1
           C1
           D1
           E1
           F1
           G1
           H1
           I1
           J1
           K1
           L1
           M1
           N1
           O1
           P1
           Q1
           R1
           S1
           T1
           U1
           V1
           W1
           X1
           Y1
           Z1
           A2
           B2
           C2
           D2
           E2
           F2
           G2
           H2
           I2
           J2
           K2
           L2
           M2
           P2
           Q2
           R2
           S2
           T2
           U2
           V2
           W2
           X2
           Y2
           Z2
           A3
           B3
           C3
           D3
           E3
           A
           N2
           O2)
    )
  )
)
(assert
  (forall ( (A Real) (B Real) (C Real) (D Real) (E Real) (F Real) (G Real) (H Real) (I Real) (J Real) (K Real) (L Real) (M Real) (N Real) (O Real) (P Real) (Q Real) (R Real) (S Real) (T Real) (U Real) (V Real) (W Real) (X Real) (Y Real) (Z Real) (A1 Real) (B1 Real) (C1 Real) (D1 Real) (E1 Real) (F1 Real) (G1 Real) (H1 Real) (I1 Real) (J1 Real) (K1 Real) (L1 Real) (M1 Real) (N1 Real) (O1 Real) (P1 Real) (Q1 Real) (R1 Real) (S1 Real) (T1 Real) (U1 Real) (V1 Real) (W1 Real) (X1 Real) (Y1 Real) (Z1 Real) (A2 Real) (B2 Real) (C2 Real) (D2 Real) (E2 Real) (F2 Real) (G2 Real) (H2 Real) (I2 Real) (J2 Real) (K2 Real) (L2 Real) (M2 Bool) (N2 Bool) (O2 Bool) (P2 Bool) (Q2 Bool) (R2 Bool) (S2 Bool) (T2 Bool) (U2 Bool) (V2 Bool) (W2 Bool) (X2 Bool) (Y2 Real) (Z2 Real) (A3 Real) (B3 Real) (C3 Real) (D3 Real) (E3 Real) (F3 Real) (G3 Real) (H3 Real) (I3 Real) (J3 Real) (K3 Real) (L3 Real) (M3 Real) (N3 Real) (O3 Real) (P3 Real) (Q3 Real) (R3 Real) (S3 Real) (T3 Real) (U3 Real) (V3 Real) (W3 Real) (X3 Real) (Y3 Real) (Z3 Real) (A4 Real) (B4 Real) (C4 Real) (D4 Real) (E4 Real) (F4 Real) (G4 Real) (H4 Real) (I4 Real) (J4 Real) (K4 Real) (L4 Real) (M4 Real) (N4 Real) (O4 Real) (P4 Real) (Q4 Real) (R4 Real) (S4 Real) (T4 Real) (U4 Real) (V4 Real) (W4 Real) (X4 Real) (Y4 Real) (Z4 Real) (A5 Real) (B5 Real) (C5 Real) (D5 Real) (E5 Real) (F5 Real) (G5 Real) (H5 Real) (I5 Real) (J5 Real) (K5 Real) (L5 Real) (M5 Real) (N5 Real) (O5 Real) (P5 Real) (Q5 Real) (R5 Real) (S5 Real) (T5 Real) (U5 Bool) (V5 Bool) (W5 Bool) (X5 Bool) (Y5 Bool) (Z5 Bool) (A6 Bool) (B6 Bool) (C6 Bool) (D6 Bool) (E6 Bool) (F6 Bool) (G6 Real) (H6 Real) (I6 Real) (J6 Real) ) 
    (=>
      (and
        (invariant A
           B
           C
           D
           E
           F
           G
           H
           I
           J
           K
           L
           M
           N
           O
           P
           Q
           R
           S
           T
           U
           V
           W
           X
           Y
           Z
           A1
           B1
           C1
           D1
           E1
           F1
           G1
           H1
           I1
           J1
           K1
           L1
           M1
           N1
           O1
           P1
           Q1
           R1
           S1
           T1
           U1
           V1
           W1
           X1
           Y1
           Z1
           A2
           B2
           C2
           D2
           E2
           F2
           G2
           H2
           I2
           J2
           K2
           L2
           M2
           N2
           O2
           P2
           Q2
           R2
           S2
           T2
           U2
           V2
           W2
           X2
           Y2
           Z2
           A3
           B3
           C3
           D3
           E3)
        (let ((a!1 (and (or (not M2)
                    (and (= H3 E3)
                         (= I3 E3)
                         (= J3 E3)
                         (= K3 E3)
                         (= L3 E3)
                         (= M3 E3)
                         (= N3 E3)
                         (= O3 E3))
                    (not (= 1.0 D3)))
                (or (not M2)
                    (and (= H3 0.0)
                         (= I3 0.0)
                         (= J3 0.0)
                         (= K3 0.0)
                         (= L3 0.0)
                         (= M3 0.0)
                         (= N3 0.0)
                         (= O3 0.0))
                    (= 1.0 D3))
                (or (not N2)
                    (and (= P3 E3)
                         (= Q3 E3)
                         (= R3 E3)
                         (= S3 E3)
                         (= T3 E3)
                         (= U3 E3)
                         (= V3 E3)
                         (= W3 E3))
                    (not (= 2.0 D3)))
                (or (not N2)
                    (and (= P3 0.0)
                         (= Q3 0.0)
                         (= R3 0.0)
                         (= S3 0.0)
                         (= T3 0.0)
                         (= U3 0.0)
                         (= V3 0.0)
                         (= W3 0.0))
                    (= 2.0 D3))
                (or (not O2)
                    (and (= X3 E3)
                         (= Y3 E3)
                         (= Z3 E3)
                         (= A4 E3)
                         (= B4 E3)
                         (= C4 E3)
                         (= D4 E3)
                         (= E4 E3))
                    (not (= 3.0 D3)))
                (or (not O2)
                    (and (= X3 0.0)
                         (= Y3 0.0)
                         (= Z3 0.0)
                         (= A4 0.0)
                         (= B4 0.0)
                         (= C4 0.0)
                         (= D4 0.0)
                         (= E4 0.0))
                    (= 3.0 D3))
                (or (not P2)
                    (and (= F4 E3)
                         (= G4 E3)
                         (= H4 E3)
                         (= I4 E3)
                         (= J4 E3)
                         (= K4 E3)
                         (= L4 E3)
                         (= M4 E3))
                    (not (= 4.0 D3)))
                (or (not P2)
                    (and (= F4 0.0)
                         (= G4 0.0)
                         (= H4 0.0)
                         (= I4 0.0)
                         (= J4 0.0)
                         (= K4 0.0)
                         (= L4 0.0)
                         (= M4 0.0))
                    (= 4.0 D3))
                (= N4 1.0)
                (= O4 G1)
                (= P4 H1)
                (= Q4 I1)
                (= R4 J1)
                (= S4 K1)
                (= T4 L1)
                (= U4 M1)
                (= V4 N1)
                (= W4 O1)
                (= X4 P1)
                (= Y4 Q1)
                (= Z4 R1)
                (= A5 S1)
                (= B5 T1)
                (= C5 U1)
                (= D5 V1)
                (= E5 W1)
                (= F5 X1)
                (= G5 Y1)
                (= H5 Z1)
                (= I5 A2)
                (= J5 B2)
                (= K5 C2)
                (= L5 D2)
                (= M5 E2)
                (= N5 F2)
                (= O5 G2)
                (= P5 H2)
                (= Q5 I2)
                (= R5 J2)
                (= S5 K2)
                (= T5 L2)
                (= G6 Y2)
                (= H6 Z2)
                (= I6 A3)
                (= J6 B3)
                (= C3 0.0)
                (= U5 M2)
                (= V5 N2)
                (= W5 O2)
                (= X5 P2)
                (= Y5 Q2)
                (= Z5 R2)
                (= A6 S2)
                (= B6 T2)
                (= C6 U2)
                (= D6 V2)
                (= E6 W2)
                (= F6 X2)))
      (a!2 (ite (= L1 N1)
                (+ 1 (ite (= M1 N1) 2 0))
                (+ (- 1) (ite (= M1 N1) 2 0))))
      (a!21 (ite (= T1 V1)
                 (+ 1 (ite (= U1 V1) 2 0))
                 (+ (- 1) (ite (= U1 V1) 2 0))))
      (a!40 (ite (= B2 D2)
                 (+ 1 (ite (= C2 D2) 2 0))
                 (+ (- 1) (ite (= C2 D2) 2 0))))
      (a!59 (ite (= J2 L2)
                 (+ 1 (ite (= K2 L2) 2 0))
                 (+ (- 1) (ite (= K2 L2) 2 0))))
      (a!78 (ite (= D3 4.0) Y (ite (= D3 3.0) Q (ite (= D3 2.0) I A))))
      (a!79 (ite (= D3 4.0) Z (ite (= D3 3.0) R (ite (= D3 2.0) J B))))
      (a!80 (ite (= D3 4.0) A1 (ite (= D3 3.0) S (ite (= D3 2.0) K C))))
      (a!81 (ite (= D3 4.0) B1 (ite (= D3 3.0) T (ite (= D3 2.0) L D))))
      (a!82 (ite (= D3 4.0) C1 (ite (= D3 3.0) U (ite (= D3 2.0) M E))))
      (a!83 (ite (= D3 4.0) D1 (ite (= D3 3.0) V (ite (= D3 2.0) N F))))
      (a!84 (ite (= D3 4.0) E1 (ite (= D3 3.0) W (ite (= D3 2.0) O G))))
      (a!85 (ite (= D3 4.0) F1 (ite (= D3 3.0) X (ite (= D3 2.0) P H)))))
(let ((a!3 (ite (= K1 (ite (= M1 N1) N1 L1))
                (+ 1 (ite (= M1 N1) a!2 1))
                (+ (- 1) (ite (= M1 N1) a!2 1))))
      (a!5 (ite (= (ite (= M1 N1) a!2 1) 0) K1 (ite (= M1 N1) N1 L1)))
      (a!22 (ite (= S1 (ite (= U1 V1) V1 T1))
                 (+ 1 (ite (= U1 V1) a!21 1))
                 (+ (- 1) (ite (= U1 V1) a!21 1))))
      (a!24 (ite (= (ite (= U1 V1) a!21 1) 0) S1 (ite (= U1 V1) V1 T1)))
      (a!41 (ite (= A2 (ite (= C2 D2) D2 B2))
                 (+ 1 (ite (= C2 D2) a!40 1))
                 (+ (- 1) (ite (= C2 D2) a!40 1))))
      (a!43 (ite (= (ite (= C2 D2) a!40 1) 0) A2 (ite (= C2 D2) D2 B2)))
      (a!60 (ite (= I2 (ite (= K2 L2) L2 J2))
                 (+ 1 (ite (= K2 L2) a!59 1))
                 (+ (- 1) (ite (= K2 L2) a!59 1))))
      (a!62 (ite (= (ite (= K2 L2) a!59 1) 0) I2 (ite (= K2 L2) L2 J2))))
(let ((a!4 (ite (= (ite (= M1 N1) a!2 1) 0) 1 a!3))
      (a!23 (ite (= (ite (= U1 V1) a!21 1) 0) 1 a!22))
      (a!42 (ite (= (ite (= C2 D2) a!40 1) 0) 1 a!41))
      (a!61 (ite (= (ite (= K2 L2) a!59 1) 0) 1 a!60)))
(let ((a!6 (ite (= a!4 0) 1 (ite (= J1 a!5) (+ 1 a!4) (+ (- 1) a!4))))
      (a!25 (ite (= a!23 0) 1 (ite (= R1 a!24) (+ 1 a!23) (+ (- 1) a!23))))
      (a!44 (ite (= a!42 0) 1 (ite (= Z1 a!43) (+ 1 a!42) (+ (- 1) a!42))))
      (a!63 (ite (= a!61 0) 1 (ite (= H2 a!62) (+ 1 a!61) (+ (- 1) a!61)))))
(let ((a!7 (ite (= I1 (ite (= a!4 0) J1 a!5)) (+ 1 a!6) (+ (- 1) a!6)))
      (a!8 (ite (= a!6 0) I1 (ite (= a!4 0) J1 a!5)))
      (a!26 (ite (= Q1 (ite (= a!23 0) R1 a!24)) (+ 1 a!25) (+ (- 1) a!25)))
      (a!27 (ite (= a!25 0) Q1 (ite (= a!23 0) R1 a!24)))
      (a!45 (ite (= Y1 (ite (= a!42 0) Z1 a!43)) (+ 1 a!44) (+ (- 1) a!44)))
      (a!46 (ite (= a!44 0) Y1 (ite (= a!42 0) Z1 a!43)))
      (a!64 (ite (= G2 (ite (= a!61 0) H2 a!62)) (+ 1 a!63) (+ (- 1) a!63)))
      (a!65 (ite (= a!63 0) G2 (ite (= a!61 0) H2 a!62))))
(let ((a!9 (ite (= H1 a!8)
                (+ 1 (ite (= a!6 0) 1 a!7))
                (+ (- 1) (ite (= a!6 0) 1 a!7))))
      (a!11 (ite (= (ite (= a!6 0) 1 a!7) 0) H1 a!8))
      (a!28 (ite (= P1 a!27)
                 (+ 1 (ite (= a!25 0) 1 a!26))
                 (+ (- 1) (ite (= a!25 0) 1 a!26))))
      (a!30 (ite (= (ite (= a!25 0) 1 a!26) 0) P1 a!27))
      (a!47 (ite (= X1 a!46)
                 (+ 1 (ite (= a!44 0) 1 a!45))
                 (+ (- 1) (ite (= a!44 0) 1 a!45))))
      (a!49 (ite (= (ite (= a!44 0) 1 a!45) 0) X1 a!46))
      (a!66 (ite (= F2 a!65)
                 (+ 1 (ite (= a!63 0) 1 a!64))
                 (+ (- 1) (ite (= a!63 0) 1 a!64))))
      (a!68 (ite (= (ite (= a!63 0) 1 a!64) 0) F2 a!65)))
(let ((a!10 (ite (= (ite (= a!6 0) 1 a!7) 0) 1 a!9))
      (a!29 (ite (= (ite (= a!25 0) 1 a!26) 0) 1 a!28))
      (a!48 (ite (= (ite (= a!44 0) 1 a!45) 0) 1 a!47))
      (a!67 (ite (= (ite (= a!63 0) 1 a!64) 0) 1 a!66)))
(let ((a!12 (ite (= N1 (ite (= a!10 0) G1 a!11)) 4 5))
      (a!31 (ite (= V1 (ite (= a!29 0) O1 a!30)) 4 5))
      (a!50 (ite (= D2 (ite (= a!48 0) W1 a!49)) 4 5))
      (a!69 (ite (= L2 (ite (= a!67 0) E2 a!68)) 4 5)))
(let ((a!13 (ite (= M1 (ite (= a!10 0) G1 a!11)) (+ (- 1) a!12) a!12))
      (a!32 (ite (= U1 (ite (= a!29 0) O1 a!30)) (+ (- 1) a!31) a!31))
      (a!51 (ite (= C2 (ite (= a!48 0) W1 a!49)) (+ (- 1) a!50) a!50))
      (a!70 (ite (= K2 (ite (= a!67 0) E2 a!68)) (+ (- 1) a!69) a!69)))
(let ((a!14 (ite (= L1 (ite (= a!10 0) G1 a!11)) (+ (- 1) a!13) a!13))
      (a!33 (ite (= T1 (ite (= a!29 0) O1 a!30)) (+ (- 1) a!32) a!32))
      (a!52 (ite (= B2 (ite (= a!48 0) W1 a!49)) (+ (- 1) a!51) a!51))
      (a!71 (ite (= J2 (ite (= a!67 0) E2 a!68)) (+ (- 1) a!70) a!70)))
(let ((a!15 (ite (= K1 (ite (= a!10 0) G1 a!11)) (+ (- 1) a!14) a!14))
      (a!34 (ite (= S1 (ite (= a!29 0) O1 a!30)) (+ (- 1) a!33) a!33))
      (a!53 (ite (= A2 (ite (= a!48 0) W1 a!49)) (+ (- 1) a!52) a!52))
      (a!72 (ite (= I2 (ite (= a!67 0) E2 a!68)) (+ (- 1) a!71) a!71)))
(let ((a!16 (ite (= J1 (ite (= a!10 0) G1 a!11)) (+ (- 1) a!15) a!15))
      (a!35 (ite (= R1 (ite (= a!29 0) O1 a!30)) (+ (- 1) a!34) a!34))
      (a!54 (ite (= Z1 (ite (= a!48 0) W1 a!49)) (+ (- 1) a!53) a!53))
      (a!73 (ite (= H2 (ite (= a!67 0) E2 a!68)) (+ (- 1) a!72) a!72)))
(let ((a!17 (ite (= I1 (ite (= a!10 0) G1 a!11)) (+ (- 1) a!16) a!16))
      (a!36 (ite (= Q1 (ite (= a!29 0) O1 a!30)) (+ (- 1) a!35) a!35))
      (a!55 (ite (= Y1 (ite (= a!48 0) W1 a!49)) (+ (- 1) a!54) a!54))
      (a!74 (ite (= G2 (ite (= a!67 0) E2 a!68)) (+ (- 1) a!73) a!73)))
(let ((a!18 (ite (= H1 (ite (= a!10 0) G1 a!11)) (+ (- 1) a!17) a!17))
      (a!37 (ite (= P1 (ite (= a!29 0) O1 a!30)) (+ (- 1) a!36) a!36))
      (a!56 (ite (= X1 (ite (= a!48 0) W1 a!49)) (+ (- 1) a!55) a!55))
      (a!75 (ite (= F2 (ite (= a!67 0) E2 a!68)) (+ (- 1) a!74) a!74)))
(let ((a!19 (ite (= G1 (ite (= a!10 0) G1 a!11)) (+ (- 1) a!18) a!18))
      (a!38 (ite (= O1 (ite (= a!29 0) O1 a!30)) (+ (- 1) a!37) a!37))
      (a!57 (ite (= W1 (ite (= a!48 0) W1 a!49)) (+ (- 1) a!56) a!56))
      (a!76 (ite (= E2 (ite (= a!67 0) E2 a!68)) (+ (- 1) a!75) a!75)))
(let ((a!20 (= G6
               (ite (or (= a!19 0)
                        (= a!18 0)
                        (= a!17 0)
                        (= a!16 0)
                        (= a!15 0)
                        (= a!14 0))
                    (ite (= a!10 0) G1 a!11)
                    0.0)))
      (a!39 (= H6
               (ite (or (= a!38 0)
                        (= a!37 0)
                        (= a!36 0)
                        (= a!35 0)
                        (= a!34 0)
                        (= a!33 0))
                    (ite (= a!29 0) O1 a!30)
                    0.0)))
      (a!58 (= I6
               (ite (or (= a!57 0)
                        (= a!56 0)
                        (= a!55 0)
                        (= a!54 0)
                        (= a!53 0)
                        (= a!52 0))
                    (ite (= a!48 0) W1 a!49)
                    0.0)))
      (a!77 (= J6
               (ite (or (= a!76 0)
                        (= a!75 0)
                        (= a!74 0)
                        (= a!73 0)
                        (= a!72 0)
                        (= a!71 0))
                    (ite (= a!67 0) E2 a!68)
                    0.0))))
(let ((a!86 (or a!1
                (and (or (not M2) a!20)
                     (or (not N2) a!39)
                     (or (not O2) a!58)
                     (or (not P2) a!77)
                     (= H3 A)
                     (= I3 B)
                     (= J3 C)
                     (= K3 D)
                     (= L3 E)
                     (= M3 F)
                     (= N3 G)
                     (= O3 H)
                     (= P3 I)
                     (= Q3 J)
                     (= R3 K)
                     (= S3 L)
                     (= T3 M)
                     (= U3 N)
                     (= V3 O)
                     (= W3 P)
                     (= X3 Q)
                     (= Y3 R)
                     (= Z3 S)
                     (= A4 T)
                     (= B4 U)
                     (= C4 V)
                     (= D4 W)
                     (= E4 X)
                     (= F4 Y)
                     (= G4 Z)
                     (= H4 A1)
                     (= I4 B1)
                     (= J4 C1)
                     (= K4 D1)
                     (= L4 E1)
                     (= M4 F1)
                     (= N4 3.0)
                     (= O4 G1)
                     (= P4 H1)
                     (= Q4 I1)
                     (= R4 J1)
                     (= S4 K1)
                     (= T4 L1)
                     (= U4 M1)
                     (= V4 N1)
                     (= W4 O1)
                     (= X4 P1)
                     (= Y4 Q1)
                     (= Z4 R1)
                     (= A5 S1)
                     (= B5 T1)
                     (= C5 U1)
                     (= D5 V1)
                     (= E5 W1)
                     (= F5 X1)
                     (= G5 Y1)
                     (= H5 Z1)
                     (= I5 A2)
                     (= J5 B2)
                     (= K5 C2)
                     (= L5 D2)
                     (= M5 E2)
                     (= N5 F2)
                     (= O5 G2)
                     (= P5 H2)
                     (= Q5 I2)
                     (= R5 J2)
                     (= S5 K2)
                     (= T5 L2)
                     (= C3 2.0)
                     (= U5 M2)
                     (= V5 N2)
                     (= W5 O2)
                     (= X5 P2)
                     (= Y5 Q2)
                     (= Z5 R2)
                     (= A6 S2)
                     (= B6 T2)
                     (= C6 U2)
                     (= D6 V2)
                     (= E6 W2)
                     (= F6 X2))
                (and (or (not Q2) (= O4 a!78))
                     (or (not Q2) (= W4 a!78))
                     (or (not Q2) (= E5 a!78))
                     (or (not Q2) (= M5 a!78))
                     (or (not R2) (= P4 a!79))
                     (or (not R2) (= X4 a!79))
                     (or (not R2) (= F5 a!79))
                     (or (not R2) (= N5 a!79))
                     (or (not S2) (= Q4 a!80))
                     (or (not S2) (= Y4 a!80))
                     (or (not S2) (= G5 a!80))
                     (or (not S2) (= O5 a!80))
                     (or (not T2) (= R4 a!81))
                     (or (not T2) (= Z4 a!81))
                     (or (not T2) (= H5 a!81))
                     (or (not T2) (= P5 a!81))
                     (or (not U2) (= S4 a!82))
                     (or (not U2) (= A5 a!82))
                     (or (not U2) (= I5 a!82))
                     (or (not U2) (= Q5 a!82))
                     (or (not V2) (= T4 a!83))
                     (or (not V2) (= B5 a!83))
                     (or (not V2) (= J5 a!83))
                     (or (not V2) (= R5 a!83))
                     (or (not W2) (= U4 a!84))
                     (or (not W2) (= C5 a!84))
                     (or (not W2) (= K5 a!84))
                     (or (not W2) (= S5 a!84))
                     (or (not X2) (= V4 a!85))
                     (or (not X2) (= D5 a!85))
                     (or (not X2) (= L5 a!85))
                     (or (not X2) (= T5 a!85))
                     (= H3 A)
                     (= I3 B)
                     (= J3 C)
                     (= K3 D)
                     (= L3 E)
                     (= M3 F)
                     (= N3 G)
                     (= O3 H)
                     (= P3 I)
                     (= Q3 J)
                     (= R3 K)
                     (= S3 L)
                     (= T3 M)
                     (= U3 N)
                     (= V3 O)
                     (= W3 P)
                     (= X3 Q)
                     (= Y3 R)
                     (= Z3 S)
                     (= A4 T)
                     (= B4 U)
                     (= C4 V)
                     (= D4 W)
                     (= E4 X)
                     (= F4 Y)
                     (= G4 Z)
                     (= H4 A1)
                     (= I4 B1)
                     (= J4 C1)
                     (= K4 D1)
                     (= L4 E1)
                     (= M4 F1)
                     (= N4 2.0)
                     (= G6 Y2)
                     (= H6 Z2)
                     (= I6 A3)
                     (= J6 B3)
                     (= C3 1.0)
                     (= U5 M2)
                     (= V5 N2)
                     (= W5 O2)
                     (= X5 P2)
                     (= Y5 Q2)
                     (= Z5 R2)
                     (= A6 S2)
                     (= B6 T2)
                     (= C6 U2)
                     (= D6 V2)
                     (= E6 W2)
                     (= F6 X2))
                (and (= H3 A)
                     (= I3 B)
                     (= J3 C)
                     (= K3 D)
                     (= L3 E)
                     (= M3 F)
                     (= N3 G)
                     (= O3 H)
                     (= P3 I)
                     (= Q3 J)
                     (= R3 K)
                     (= S3 L)
                     (= T3 M)
                     (= U3 N)
                     (= V3 O)
                     (= W3 P)
                     (= X3 Q)
                     (= Y3 R)
                     (= Z3 S)
                     (= A4 T)
                     (= B4 U)
                     (= C4 V)
                     (= D4 W)
                     (= E4 X)
                     (= F4 Y)
                     (= G4 Z)
                     (= H4 A1)
                     (= I4 B1)
                     (= J4 C1)
                     (= K4 D1)
                     (= L4 E1)
                     (= M4 F1)
                     (= N4 C3)
                     (= O4 G1)
                     (= P4 H1)
                     (= Q4 I1)
                     (= R4 J1)
                     (= S4 K1)
                     (= T4 L1)
                     (= U4 M1)
                     (= V4 N1)
                     (= W4 O1)
                     (= X4 P1)
                     (= Y4 Q1)
                     (= Z4 R1)
                     (= A5 S1)
                     (= B5 T1)
                     (= C5 U1)
                     (= D5 V1)
                     (= E5 W1)
                     (= F5 X1)
                     (= G5 Y1)
                     (= H5 Z1)
                     (= I5 A2)
                     (= J5 B2)
                     (= K5 C2)
                     (= L5 D2)
                     (= M5 E2)
                     (= N5 F2)
                     (= O5 G2)
                     (= P5 H2)
                     (= Q5 I2)
                     (= R5 J2)
                     (= S5 K2)
                     (= T5 L2)
                     (= G6 Y2)
                     (= H6 Z2)
                     (= I6 A3)
                     (= J6 B3)
                     (= C3 3.0)
                     (= U5 M2)
                     (= V5 N2)
                     (= W5 O2)
                     (= X5 P2)
                     (= Y5 Q2)
                     (= Z5 R2)
                     (= A6 S2)
                     (= B6 T2)
                     (= C6 U2)
                     (= D6 V2)
                     (= E6 W2)
                     (= F6 X2)))))
  (and (= F3 D3) a!86 (= G3 E3)))))))))))))))))))
      )
      (invariant H3
           I3
           J3
           K3
           L3
           M3
           N3
           O3
           P3
           Q3
           R3
           S3
           T3
           U3
           V3
           W3
           X3
           Y3
           Z3
           A4
           B4
           C4
           D4
           E4
           F4
           G4
           H4
           I4
           J4
           K4
           L4
           M4
           O4
           P4
           Q4
           R4
           S4
           T4
           U4
           V4
           W4
           X4
           Y4
           Z4
           A5
           B5
           C5
           D5
           E5
           F5
           G5
           H5
           I5
           J5
           K5
           L5
           M5
           N5
           O5
           P5
           Q5
           R5
           S5
           T5
           U5
           V5
           W5
           X5
           Y5
           Z5
           A6
           B6
           C6
           D6
           E6
           F6
           G6
           H6
           I6
           J6
           N4
           F3
           G3)
    )
  )
)
(assert
  (forall ( (A Real) (B Real) (C Real) (D Real) (E Real) (F Real) (G Real) (H Real) (I Real) (J Real) (K Real) (L Real) (M Real) (N Real) (O Real) (P Real) (Q Real) (R Real) (S Real) (T Real) (U Real) (V Real) (W Real) (X Real) (Y Real) (Z Real) (A1 Real) (B1 Real) (C1 Real) (D1 Real) (E1 Real) (F1 Real) (G1 Real) (H1 Real) (I1 Real) (J1 Real) (K1 Real) (L1 Real) (M1 Real) (N1 Real) (O1 Real) (P1 Real) (Q1 Real) (R1 Real) (S1 Real) (T1 Real) (U1 Real) (V1 Real) (W1 Real) (X1 Real) (Y1 Real) (Z1 Real) (A2 Real) (B2 Real) (C2 Real) (D2 Real) (E2 Real) (F2 Real) (G2 Real) (H2 Real) (I2 Real) (J2 Real) (K2 Real) (L2 Real) (M2 Bool) (N2 Bool) (O2 Bool) (P2 Bool) (Q2 Bool) (R2 Bool) (S2 Bool) (T2 Bool) (U2 Bool) (V2 Bool) (W2 Bool) (X2 Bool) (Y2 Real) (Z2 Real) (A3 Real) (B3 Real) (C3 Real) (D3 Real) (E3 Real) ) 
    (=>
      (and
        (invariant A
           B
           C
           D
           E
           F
           G
           H
           I
           J
           K
           L
           M
           N
           O
           P
           Q
           R
           S
           T
           U
           V
           W
           X
           Y
           Z
           A1
           B1
           C1
           D1
           E1
           F1
           G1
           H1
           I1
           J1
           K1
           L1
           M1
           N1
           O1
           P1
           Q1
           R1
           S1
           T1
           U1
           V1
           W1
           X1
           Y1
           Z1
           A2
           B2
           C2
           D2
           E2
           F2
           G2
           H2
           I2
           J2
           K2
           L2
           M2
           N2
           O2
           P2
           Q2
           R2
           S2
           T2
           U2
           V2
           W2
           X2
           Y2
           Z2
           A3
           B3
           C3
           D3
           E3)
        (let ((a!1 (or (and M2 (not (= B3 Y2)))
               (and N2 (not (= B3 Z2)))
               (and O2 (not (= B3 A3)))))
      (a!2 (or (and P2 (not (= Y2 B3)))
               (and N2 (not (= Y2 Z2)))
               (and O2 (not (= Y2 A3)))))
      (a!3 (or (and P2 (not (= Z2 B3)))
               (and M2 (not (= Z2 Y2)))
               (and O2 (not (= Z2 A3)))))
      (a!4 (or (and P2 (not (= A3 B3)))
               (and M2 (not (= A3 Y2)))
               (and N2 (not (= A3 Z2))))))
  (and (or (and P2 a!1) (and M2 a!2) (and N2 a!3) (and O2 a!4)) (<= 3.0 C3)))
      )
      false
    )
  )
)

(check-sat)
(exit)
